JulietBench/Juliet_Based_Patch_Bench/FFmpeg/CWE-189-Numeric-Errors/CVE_2013_2495_3dbc0ff9c3e6f6e0d08ea3d42cb33761bae084ba/Resultiff_read_header_Snippet_patch2EQ.smt2
; benchmark generated from python API
(set-info :status unknown)
(declare-fun R () (_ BitVec 32))
(declare-fun rdi () (_ BitVec 64))
(assert
 (let (($x25 (= (_ bv41 32) R)))
 (let ((?x6 ((_ extract 31 0) rdi)))
 (let ((?x13 (bvadd (_ bv41 32) ?x6)))
 (let (($x16 (= R ?x13)))
 (and $x16 $x25))))))
(check-sat)
